p cnf 96 512
1 2 3 0
4 5 6 0
7 8 9 0
10 11 12 0
13 14 15 0
16 17 18 0
19 20 21 0
22 23 24 0
25 26 27 0
28 29 30 0
31 32 33 0
34 35 36 0
37 38 39 0
40 41 42 0
43 44 45 0
46 47 48 0
49 50 51 0
52 53 54 0
55 56 57 0
58 59 60 0
61 62 63 0
64 65 66 0
67 68 69 0
70 71 72 0
73 74 75 0
76 77 78 0
79 80 81 0
82 83 84 0
85 86 87 0
88 89 90 0
91 92 93 0
94 95 96 0
-1 -2 0
-1 -3 0
-2 -3 0
-4 -5 0
-4 -6 0
-5 -6 0
-7 -8 0
-7 -9 0
-8 -9 0
-10 -11 0
-10 -12 0
-11 -12 0
-13 -14 0
-13 -15 0
-14 -15 0
-16 -17 0
-16 -18 0
-17 -18 0
-19 -20 0
-19 -21 0
-20 -21 0
-22 -23 0
-22 -24 0
-23 -24 0
-25 -26 0
-25 -27 0
-26 -27 0
-28 -29 0
-28 -30 0
-29 -30 0
-31 -32 0
-31 -33 0
-32 -33 0
-34 -35 0
-34 -36 0
-35 -36 0
-37 -38 0
-37 -39 0
-38 -39 0
-40 -41 0
-40 -42 0
-41 -42 0
-43 -44 0
-43 -45 0
-44 -45 0
-46 -47 0
-46 -48 0
-47 -48 0
-49 -50 0
-49 -51 0
-50 -51 0
-52 -53 0
-52 -54 0
-53 -54 0
-55 -56 0
-55 -57 0
-56 -57 0
-58 -59 0
-58 -60 0
-59 -60 0
-61 -62 0
-61 -63 0
-62 -63 0
-64 -65 0
-64 -66 0
-65 -66 0
-67 -68 0
-67 -69 0
-68 -69 0
-70 -71 0
-70 -72 0
-71 -72 0
-73 -74 0
-73 -75 0
-74 -75 0
-76 -77 0
-76 -78 0
-77 -78 0
-79 -80 0
-79 -81 0
-80 -81 0
-82 -83 0
-82 -84 0
-83 -84 0
-85 -86 0
-85 -87 0
-86 -87 0
-88 -89 0
-88 -90 0
-89 -90 0
-91 -92 0
-91 -93 0
-92 -93 0
-94 -95 0
-94 -96 0
-95 -96 0
-1 -4 0
-2 -5 0
-3 -6 0
-1 -13 0
-2 -14 0
-3 -15 0
-1 -7 0
-2 -8 0
-3 -9 0
-1 -10 0
-2 -11 0
-3 -12 0
-4 -16 0
-5 -17 0
-6 -18 0
-4 -19 0
-5 -20 0
-6 -21 0
-4 -22 0
-5 -23 0
-6 -24 0
-4 -1 0
-5 -2 0
-6 -3 0
-7 -85 0
-8 -86 0
-9 -87 0
-7 -37 0
-8 -38 0
-9 -39 0
-7 -67 0
-8 -68 0
-9 -69 0
-7 -1 0
-8 -2 0
-9 -3 0
-10 -76 0
-11 -77 0
-12 -78 0
-10 -79 0
-11 -80 0
-12 -81 0
-10 -1 0
-11 -2 0
-12 -3 0
-10 -64 0
-11 -65 0
-12 -66 0
-13 -94 0
-14 -95 0
-15 -96 0
-13 -88 0
-14 -89 0
-15 -90 0
-13 -25 0
-14 -26 0
-15 -27 0
-13 -1 0
-14 -2 0
-15 -3 0
-16 -31 0
-17 -32 0
-18 -33 0
-16 -4 0
-17 -5 0
-18 -6 0
-16 -25 0
-17 -26 0
-18 -27 0
-16 -28 0
-17 -29 0
-18 -30 0
-19 -4 0
-20 -5 0
-21 -6 0
-19 -46 0
-20 -47 0
-21 -48 0
-19 -82 0
-20 -83 0
-21 -84 0
-19 -55 0
-20 -56 0
-21 -57 0
-22 -4 0
-23 -5 0
-24 -6 0
-22 -70 0
-23 -71 0
-24 -72 0
-22 -34 0
-23 -35 0
-24 -36 0
-22 -94 0
-23 -95 0
-24 -96 0
-25 -16 0
-26 -17 0
-27 -18 0
-25 -37 0
-26 -38 0
-27 -39 0
-25 -13 0
-26 -14 0
-27 -15 0
-25 -34 0
-26 -35 0
-27 -36 0
-28 -16 0
-29 -17 0
-30 -18 0
-28 -43 0
-29 -44 0
-30 -45 0
-28 -58 0
-29 -59 0
-30 -60 0
-28 -52 0
-29 -53 0
-30 -54 0
-31 -61 0
-32 -62 0
-33 -63 0
-31 -16 0
-32 -17 0
-33 -18 0
-31 -70 0
-32 -71 0
-33 -72 0
-31 -67 0
-32 -68 0
-33 -69 0
-34 -61 0
-35 -62 0
-36 -63 0
-34 -22 0
-35 -23 0
-36 -24 0
-34 -79 0
-35 -80 0
-36 -81 0
-34 -25 0
-35 -26 0
-36 -27 0
-37 -49 0
-38 -50 0
-39 -51 0
-37 -73 0
-38 -74 0
-39 -75 0
-37 -25 0
-38 -26 0
-39 -27 0
-37 -7 0
-38 -8 0
-39 -9 0
-40 -49 0
-41 -50 0
-42 -51 0
-40 -43 0
-41 -44 0
-42 -45 0
-40 -46 0
-41 -47 0
-42 -48 0
-40 -52 0
-41 -53 0
-42 -54 0
-43 -55 0
-44 -56 0
-45 -57 0
-43 -58 0
-44 -59 0
-45 -60 0
-43 -40 0
-44 -41 0
-45 -42 0
-43 -28 0
-44 -29 0
-45 -30 0
-46 -85 0
-47 -86 0
-48 -87 0
-46 -19 0
-47 -20 0
-48 -21 0
-46 -40 0
-47 -41 0
-48 -42 0
-46 -91 0
-47 -92 0
-48 -93 0
-49 -94 0
-50 -95 0
-51 -96 0
-49 -58 0
-50 -59 0
-51 -60 0
-49 -37 0
-50 -38 0
-51 -39 0
-49 -40 0
-50 -41 0
-51 -42 0
-52 -67 0
-53 -68 0
-54 -69 0
-52 -79 0
-53 -80 0
-54 -81 0
-52 -40 0
-53 -41 0
-54 -42 0
-52 -28 0
-53 -29 0
-54 -30 0
-55 -43 0
-56 -44 0
-57 -45 0
-55 -19 0
-56 -20 0
-57 -21 0
-55 -88 0
-56 -89 0
-57 -90 0
-55 -64 0
-56 -65 0
-57 -66 0
-58 -61 0
-59 -62 0
-60 -63 0
-58 -49 0
-59 -50 0
-60 -51 0
-58 -43 0
-59 -44 0
-60 -45 0
-58 -28 0
-59 -29 0
-60 -30 0
-61 -31 0
-62 -32 0
-63 -33 0
-61 -58 0
-62 -59 0
-63 -60 0
-61 -34 0
-62 -35 0
-63 -36 0
-61 -64 0
-62 -65 0
-63 -66 0
-64 -61 0
-65 -62 0
-66 -63 0
-64 -94 0
-65 -95 0
-66 -96 0
-64 -10 0
-65 -11 0
-66 -12 0
-64 -55 0
-65 -56 0
-66 -57 0
-67 -31 0
-68 -32 0
-69 -33 0
-67 -91 0
-68 -92 0
-69 -93 0
-67 -52 0
-68 -53 0
-69 -54 0
-67 -7 0
-68 -8 0
-69 -9 0
-70 -31 0
-71 -32 0
-72 -33 0
-70 -76 0
-71 -77 0
-72 -78 0
-70 -22 0
-71 -23 0
-72 -24 0
-70 -85 0
-71 -86 0
-72 -87 0
-73 -82 0
-74 -83 0
-75 -84 0
-73 -37 0
-74 -38 0
-75 -39 0
-73 -76 0
-74 -77 0
-75 -78 0
-73 -79 0
-74 -80 0
-75 -81 0
-76 -91 0
-77 -92 0
-78 -93 0
-76 -70 0
-77 -71 0
-78 -72 0
-76 -73 0
-77 -74 0
-78 -75 0
-76 -10 0
-77 -11 0
-78 -12 0
-79 -34 0
-80 -35 0
-81 -36 0
-79 -73 0
-80 -74 0
-81 -75 0
-79 -52 0
-80 -53 0
-81 -54 0
-79 -10 0
-80 -11 0
-81 -12 0
-82 -88 0
-83 -89 0
-84 -90 0
-82 -19 0
-83 -20 0
-84 -21 0
-82 -73 0
-83 -74 0
-84 -75 0
-82 -85 0
-83 -86 0
-84 -87 0
-85 -82 0
-86 -83 0
-87 -84 0
-85 -70 0
-86 -71 0
-87 -72 0
-85 -46 0
-86 -47 0
-87 -48 0
-85 -7 0
-86 -8 0
-87 -9 0
-88 -82 0
-89 -83 0
-90 -84 0
-88 -13 0
-89 -14 0
-90 -15 0
-88 -55 0
-89 -56 0
-90 -57 0
-88 -91 0
-89 -92 0
-90 -93 0
-91 -88 0
-92 -89 0
-93 -90 0
-91 -46 0
-92 -47 0
-93 -48 0
-91 -76 0
-92 -77 0
-93 -78 0
-91 -67 0
-92 -68 0
-93 -69 0
-94 -49 0
-95 -50 0
-96 -51 0
-94 -13 0
-95 -14 0
-96 -15 0
-94 -22 0
-95 -23 0
-96 -24 0
-94 -64 0
-95 -65 0
-96 -66 0
